80 254704
37 1 32 26 30 55 20 8 28 25 12 60 54 10 22 2 73 80 74 62 23 13 29 47 41 39 48 56 52 75 63 38 7 59 57 65 44 36 53 76 43 66 69 70 50 40 31 5 16 24 46 3 49 79 11 51 45 21 35 4 68 17 78 27 34 14 61 42 6 58 72 64 33 15 18 77 9 67 19 71 
